p cnf 19 71
-3 -4 -9 0
-1 -10 -19 0
3 -5 16 0
2 6 -7 0
-4 -8 11 0
2 -16 -19 0
-1 -10 15 0
-8 -13 15 0
-3 4 -16 0
2 -16 -18 0
-8 -10 15 0
7 11 -14 0
1 16 17 0
-2 -7 9 0
-13 17 -19 0
3 -8 16 0
-5 6 -14 0
-1 8 -12 0
5 -15 17 0
-10 17 -18 0
-5 -7 17 0
3 5 7 0
4 -6 9 0
14 15 17 0
10 11 -13 0
-5 -12 -16 0
-3 -8 12 0
-5 -7 -15 0
-4 -8 -16 0
-3 -4 14 0
-2 -3 17 0
7 14 -19 0
-4 12 -17 0
-3 -6 16 0
1 -7 -16 0
3 -13 -18 0
3 -6 -13 0
-9 -13 18 0
9 11 -16 0
-5 -10 -16 0
3 7 15 0
1 -5 12 0
-1 3 10 0
-10 -14 -16 0
-4 13 15 0
6 -7 -10 0
-3 -10 16 0
-1 11 12 0
-2 13 16 0
2 -15 -19 0
-2 15 17 0
5 8 -19 0
4 -6 -10 0
-2 5 9 0
4 10 -14 0
-2 -4 13 0
10 12 17 0
-6 13 -18 0
-9 10 -14 0
11 14 -18 0
-10 -12 -17 0
-4 -5 -9 0
8 -10 -13 0
1 3 -5 0
8 14 -15 0
-10 12 -16 0
3 6 -19 0
9 10 -13 0
-4 5 7 0
-11 12 -13 0
2 4 8 0
